param W_CLASS:=
1 -0.02342841447154152
2 0.04295182480396549
3 0
4 0
5 0
6 -0.9622212509670285
7 0
8 0
9 0
10 0
11 0
12 0
13 -0.22141997777453176
14 0.8058326449907366
15 0
16 -1.0181648385790896
17 0
18 0
19 0;

param B_CLASS:=5.851115774179226;